(set-info :Origin "This instance was generated by: BanditFuzz-- an RL fuzzer for SMT solvers" )
(set-info :Author "Joe Scott, Fed Mora, Vijay Ganesh" )
(set-info :Contact "Joe Scott, joseph.scott@uwaterloo.ca")
(set-logic QF_BV)
(declare-const bool_0 Bool)
(declare-const bool_1 Bool)
(declare-const bool_2 Bool)
(declare-const bool_3 Bool)
(declare-const bool_4 Bool)
(declare-const bv_0 (_ BitVec 32))
(declare-const bv_1 (_ BitVec 32))
(declare-const bv_2 (_ BitVec 32))
(declare-const bv_3 (_ BitVec 32))
(declare-const bv_4 (_ BitVec 32))
(assert (xor (bvult (bvshl bv_4 bv_3) (bvor #x9eee49f3  #xbfd735d3 )) (bvsge (bvxnor #x2adffec5  #x6e217e12 ) (bvmul bv_1 #x6aec4fb2 ))))
(assert (=> (or (bvult #xdd2925a6  #xd9f84dad ) (bvsge bv_0 bv_2)) (or (bvsle #x584b7a4e  bv_2) (=> bool_1 true))))
(assert (bvslt (bvsmod (bvxnor #x2e197a6b  bv_1) (bvor #x8ee745b1  bv_2)) (bvashr (bvudiv #x2af037c5  #x34781478 ) (bvurem #xf0c27a39  #x7fd59dec ))))
(assert (bvugt (bvmul (bvsub bv_4 #xe171baf0 ) (bvsmod bv_3 bv_2)) (bvand (bvxnor bv_3 #x34632b04 ) (bvmul #x910697e5  bv_2))))
(assert (bvuge (bvxor (bvsdiv #x98e7f907  #x86586633 ) (bvnor bv_3 bv_4)) (bvlshr (bvand #x5073e134  bv_1) (bvudiv bv_4 bv_3))))
(check-sat)
(exit)
